# 
# This is the geometry file that corresponds to the current relaxation step.
# If you do not want this file to be written, set the "write_restart_geometry" flag to .false.
#  aims_uuid : C6DB5B5E-2FB6-4FDA-A445-4C91E1F60F59                                
# 
lattice_vector      7.20481984     -0.00000000     -0.01875147
lattice_vector      0.00000000     12.48139093     -0.00000000
lattice_vector     -3.55031022      0.00000000      6.25524944
atom_frac       0.71627935      0.59154862      0.95994621 Si
atom_frac       0.28372065      0.59154862      0.54005378 Si
atom_frac       0.28372065      0.40845138      0.04005378 Si
atom_frac       0.71627935      0.40845138      0.45994621 Si
atom_frac       0.81834012      0.64188398      0.42717747 Si
atom_frac       0.18165988      0.64188398      0.07282252 Si
atom_frac       0.18165988      0.35811602      0.57282252 Si
atom_frac       0.81834012      0.35811602      0.92717747 Si
atom_frac       0.21627935      0.09154862      0.95994621 Si
atom_frac       0.78372065      0.09154862      0.54005379 Si
atom_frac       0.78372065      0.90845138      0.04005379 Si
atom_frac       0.21627935      0.90845138      0.45994621 Si
atom_frac       0.31834012      0.14188398      0.42717747 Si
atom_frac       0.68165988      0.14188398      0.07282252 Si
atom_frac       0.68165988      0.85811602      0.57282252 Si
atom_frac       0.31834012      0.85811602      0.92717747 Si
atom_frac       0.28689826      0.53860935      0.01936117 O
atom_frac       0.71310175      0.53860935      0.48063882 O
atom_frac       0.71310175      0.46139065      0.98063882 O
atom_frac       0.28689825      0.46139065      0.51936117 O
atom_frac       0.73049610      0.64624753      0.17104454 O
atom_frac       0.26950390      0.64624753      0.32895545 O
atom_frac       0.26950390      0.35375247      0.82895545 O
atom_frac       0.73049610      0.35375247      0.67104454 O
atom_frac       0.75000000      0.25000000     -0.00000000 O
atom_frac       0.25000000      0.25000000      0.50000000 O
atom_frac       0.50000000      0.36693631      0.25000000 O
atom_frac       0.50000000      0.63306369      0.75000000 O
atom_frac       0.07692177      0.37185203      0.05911069 O
atom_frac       0.92307823      0.37185203      0.44088930 O
atom_frac       0.92307823      0.62814797      0.94088930 O
atom_frac       0.07692177      0.62814797      0.55911070 O
atom_frac       0.78689825      0.03860935      0.01936117 O
atom_frac       0.21310175      0.03860935      0.48063882 O
atom_frac       0.21310175      0.96139065      0.98063882 O
atom_frac       0.78689825      0.96139065      0.51936117 O
atom_frac       0.23049610      0.14624753      0.17104454 O
atom_frac       0.76950390      0.14624753      0.32895545 O
atom_frac       0.76950390      0.85375247      0.82895545 O
atom_frac       0.23049610      0.85375247      0.67104454 O
atom_frac       0.25000000      0.75000000     -0.00000000 O
atom_frac       0.75000000      0.75000000      0.50000000 O
atom_frac       0.00000000      0.86693631      0.25000000 O
atom_frac       0.00000000      0.13306369      0.75000000 O
atom_frac       0.57692177      0.87185203      0.05911070 O
atom_frac       0.42307823      0.87185203      0.44088930 O
atom_frac       0.42307823      0.12814797      0.94088930 O
atom_frac       0.57692177      0.12814797      0.55911070 O
# 
# What follows is the current estimated Hessian matrix constructed by the BFGS algorithm.
# This is NOT the true Hessian matrix of the system.
# If you do not want this information here, switch it off using the "hessian_to_restart_geometry" keyword.
# 
