optimise conp property phonon compare distance
name silicate
cell
7.546602304894469 7.546602304894469 8.6995413586466  90.000  90.000  90.000
fractional 2
Si    0.3248566842455168  0.1191349372480595  0.2508117809726788
Si   0.38086506275193616  0.8248566842455172  0.0008117809726788661
Si   0.6751433157544768  0.8808650627519368  0.7508117809726793
Si   0.6191349372480585  0.17514331575447745  0.5008117809726793
Si   0.1191349372480592  0.3248566842455171  0.7491882190273205
Si   0.8248566842455173  0.38086506275193616  0.9991882190273196
Si   0.8808650627519345  0.6751433157544786  0.24918821902731975
Si   0.17514331575447703  0.619134937248059  0.49918821902732086
Si   0.4141911185067934  0.4141911185067928  0.9999999999999988
Si   0.08580888149320168  0.9141911185067938  0.7499999999999998
Si   0.5858088814932009  0.5858088814932025  0.5
Si   0.9141911185067926  0.0858088814932024  0.24999999999999953
O    0.44056473962276105  0.12451237400814237  0.4070674081879881
O    0.3754876259918512  0.9405647396227624  0.1570674081879894
O    0.5594352603772327  0.8754876259918533  0.9070674081879903
O    0.6245123740081407  0.0594352603772342  0.6570674081879885
O    0.1245123740081414  0.4405647396227628  0.5929325918120102
O    0.9405647396227634  0.37548762599185326  0.8429325918120114
O    0.8754876259918518  0.5594352603772335  0.09293259181201145
O    0.059435260377231326  0.624512374008144  0.3429325918120113
O    0.11826865943973663  0.1175994723282238  0.30024679463737874
O    0.3824005276717735  0.6182686594397367  0.05024679463737717
O    0.8817313405602581  0.8824005276717721  0.8002467946373762
O    0.6175994723282235  0.38173134056025876  0.5502467946373764
O    0.11759947232822329  0.11826865943973712  0.6997532053626214
O    0.6182686594397365  0.38240052767177235  0.9497532053626219
O    0.8824005276717716  0.881731340560259  0.19975320536261992
O    0.381731340560257  0.6175994723282213  0.4497532053626198
O    0.36448396815380685  0.293592225054757  0.1476575258880677
O    0.2064077749452379  0.8644839681538069  0.897657525888068
O    0.6355160318461848  0.7064077749452374  0.6476575258880677
O    0.7935922250547569  0.1355160318461867  0.3976575258880677
O    0.2935922250547583  0.3644839681538074  0.8523424741119314
O    0.8644839681538069  0.20640777494523818  0.10234247411193269
O    0.7064077749452362  0.6355160318461912  0.35234247411193154
O    0.13551603184619007  0.7935922250547571  0.6023424741119315

space
P 1
species  3
O    core  0.86902
O    shel -2.86902
Si    core  4.00000

buckingham
Si core   O    shel  1283.907 0.32052 10.66158 0.0 10.0
O shel    O   shel 22764.000 0.14900 27.87900 0.0 12.0

spring
O  74.92

three
Si core O shel O shel 2.09724 109.47 1.8 1.8 3.2
xtol 8
gtol 7
ftol 12
output cif silica.opt

